[TITLE]
; Synthetic 20 x 20 grid for hydraulic performance benchmarking

[JUNCTIONS]
;ID                 Elevation       Demand          Pattern
 J00_00            100.00          1.00
 J00_01            100.10          1.10
 J00_02            100.20          1.20
 J00_03            100.30          1.30
 J00_04            100.40          1.40
 J00_05            100.50          1.00
 J00_06            100.60          1.10
 J00_07            100.70          1.20
 J00_08            100.80          1.30
 J00_09            100.90          1.40
 J00_10            101.00          1.00
 J00_11            101.10          1.10
 J00_12            101.20          1.20
 J00_13            101.30          1.30
 J00_14            101.40          1.40
 J00_15            101.50          1.00
 J00_16            101.60          1.10
 J00_17            101.70          1.20
 J00_18            101.80          1.30
 J00_19            101.90          1.40
 J01_00            100.25          1.10
 J01_01            100.35          1.20
 J01_02            100.45          1.30
 J01_03            100.55          1.40
 J01_04            100.65          1.00
 J01_05            100.75          1.10
 J01_06            100.85          1.20
 J01_07            100.95          1.30
 J01_08            101.05          1.40
 J01_09            101.15          1.00
 J01_10            101.25          1.10
 J01_11            101.35          1.20
 J01_12            101.45          1.30
 J01_13            101.55          1.40
 J01_14            101.65          1.00
 J01_15            101.75          1.10
 J01_16            101.85          1.20
 J01_17            101.95          1.30
 J01_18            102.05          1.40
 J01_19            102.15          1.00
 J02_00            100.50          1.20
 J02_01            100.60          1.30
 J02_02            100.70          1.40
 J02_03            100.80          1.00
 J02_04            100.90          1.10
 J02_05            101.00          1.20
 J02_06            101.10          1.30
 J02_07            101.20          1.40
 J02_08            101.30          1.00
 J02_09            101.40          1.10
 J02_10            101.50          1.20
 J02_11            101.60          1.30
 J02_12            101.70          1.40
 J02_13            101.80          1.00
 J02_14            101.90          1.10
 J02_15            102.00          1.20
 J02_16            102.10          1.30
 J02_17            102.20          1.40
 J02_18            102.30          1.00
 J02_19            102.40          1.10
 J03_00            100.75          1.30
 J03_01            100.85          1.40
 J03_02            100.95          1.00
 J03_03            101.05          1.10
 J03_04            101.15          1.20
 J03_05            101.25          1.30
 J03_06            101.35          1.40
 J03_07            101.45          1.00
 J03_08            101.55          1.10
 J03_09            101.65          1.20
 J03_10            101.75          1.30
 J03_11            101.85          1.40
 J03_12            101.95          1.00
 J03_13            102.05          1.10
 J03_14            102.15          1.20
 J03_15            102.25          1.30
 J03_16            102.35          1.40
 J03_17            102.45          1.00
 J03_18            102.55          1.10
 J03_19            102.65          1.20
 J04_00            101.00          1.40
 J04_01            101.10          1.00
 J04_02            101.20          1.10
 J04_03            101.30          1.20
 J04_04            101.40          1.30
 J04_05            101.50          1.40
 J04_06            101.60          1.00
 J04_07            101.70          1.10
 J04_08            101.80          1.20
 J04_09            101.90          1.30
 J04_10            102.00          1.40
 J04_11            102.10          1.00
 J04_12            102.20          1.10
 J04_13            102.30          1.20
 J04_14            102.40          1.30
 J04_15            102.50          1.40
 J04_16            102.60          1.00
 J04_17            102.70          1.10
 J04_18            102.80          1.20
 J04_19            102.90          1.30
 J05_00            101.25          1.00
 J05_01            101.35          1.10
 J05_02            101.45          1.20
 J05_03            101.55          1.30
 J05_04            101.65          1.40
 J05_05            101.75          1.00
 J05_06            101.85          1.10
 J05_07            101.95          1.20
 J05_08            102.05          1.30
 J05_09            102.15          1.40
 J05_10            102.25          1.00
 J05_11            102.35          1.10
 J05_12            102.45          1.20
 J05_13            102.55          1.30
 J05_14            102.65          1.40
 J05_15            102.75          1.00
 J05_16            102.85          1.10
 J05_17            102.95          1.20
 J05_18            103.05          1.30
 J05_19            103.15          1.40
 J06_00            101.50          1.10
 J06_01            101.60          1.20
 J06_02            101.70          1.30
 J06_03            101.80          1.40
 J06_04            101.90          1.00
 J06_05            102.00          1.10
 J06_06            102.10          1.20
 J06_07            102.20          1.30
 J06_08            102.30          1.40
 J06_09            102.40          1.00
 J06_10            102.50          1.10
 J06_11            102.60          1.20
 J06_12            102.70          1.30
 J06_13            102.80          1.40
 J06_14            102.90          1.00
 J06_15            103.00          1.10
 J06_16            103.10          1.20
 J06_17            103.20          1.30
 J06_18            103.30          1.40
 J06_19            103.40          1.00
 J07_00            101.75          1.20
 J07_01            101.85          1.30
 J07_02            101.95          1.40
 J07_03            102.05          1.00
 J07_04            102.15          1.10
 J07_05            102.25          1.20
 J07_06            102.35          1.30
 J07_07            102.45          1.40
 J07_08            102.55          1.00
 J07_09            102.65          1.10
 J07_10            102.75          1.20
 J07_11            102.85          1.30
 J07_12            102.95          1.40
 J07_13            103.05          1.00
 J07_14            103.15          1.10
 J07_15            103.25          1.20
 J07_16            103.35          1.30
 J07_17            103.45          1.40
 J07_18            103.55          1.00
 J07_19            103.65          1.10
 J08_00            102.00          1.30
 J08_01            102.10          1.40
 J08_02            102.20          1.00
 J08_03            102.30          1.10
 J08_04            102.40          1.20
 J08_05            102.50          1.30
 J08_06            102.60          1.40
 J08_07            102.70          1.00
 J08_08            102.80          1.10
 J08_09            102.90          1.20
 J08_10            103.00          1.30
 J08_11            103.10          1.40
 J08_12            103.20          1.00
 J08_13            103.30          1.10
 J08_14            103.40          1.20
 J08_15            103.50          1.30
 J08_16            103.60          1.40
 J08_17            103.70          1.00
 J08_18            103.80          1.10
 J08_19            103.90          1.20
 J09_00            102.25          1.40
 J09_01            102.35          1.00
 J09_02            102.45          1.10
 J09_03            102.55          1.20
 J09_04            102.65          1.30
 J09_05            102.75          1.40
 J09_06            102.85          1.00
 J09_07            102.95          1.10
 J09_08            103.05          1.20
 J09_09            103.15          1.30
 J09_10            103.25          1.40
 J09_11            103.35          1.00
 J09_12            103.45          1.10
 J09_13            103.55          1.20
 J09_14            103.65          1.30
 J09_15            103.75          1.40
 J09_16            103.85          1.00
 J09_17            103.95          1.10
 J09_18            104.05          1.20
 J09_19            104.15          1.30
 J10_00            102.50          1.00
 J10_01            102.60          1.10
 J10_02            102.70          1.20
 J10_03            102.80          1.30
 J10_04            102.90          1.40
 J10_05            103.00          1.00
 J10_06            103.10          1.10
 J10_07            103.20          1.20
 J10_08            103.30          1.30
 J10_09            103.40          1.40
 J10_10            103.50          1.00
 J10_11            103.60          1.10
 J10_12            103.70          1.20
 J10_13            103.80          1.30
 J10_14            103.90          1.40
 J10_15            104.00          1.00
 J10_16            104.10          1.10
 J10_17            104.20          1.20
 J10_18            104.30          1.30
 J10_19            104.40          1.40
 J11_00            102.75          1.10
 J11_01            102.85          1.20
 J11_02            102.95          1.30
 J11_03            103.05          1.40
 J11_04            103.15          1.00
 J11_05            103.25          1.10
 J11_06            103.35          1.20
 J11_07            103.45          1.30
 J11_08            103.55          1.40
 J11_09            103.65          1.00
 J11_10            103.75          1.10
 J11_11            103.85          1.20
 J11_12            103.95          1.30
 J11_13            104.05          1.40
 J11_14            104.15          1.00
 J11_15            104.25          1.10
 J11_16            104.35          1.20
 J11_17            104.45          1.30
 J11_18            104.55          1.40
 J11_19            104.65          1.00
 J12_00            103.00          1.20
 J12_01            103.10          1.30
 J12_02            103.20          1.40
 J12_03            103.30          1.00
 J12_04            103.40          1.10
 J12_05            103.50          1.20
 J12_06            103.60          1.30
 J12_07            103.70          1.40
 J12_08            103.80          1.00
 J12_09            103.90          1.10
 J12_10            104.00          1.20
 J12_11            104.10          1.30
 J12_12            104.20          1.40
 J12_13            104.30          1.00
 J12_14            104.40          1.10
 J12_15            104.50          1.20
 J12_16            104.60          1.30
 J12_17            104.70          1.40
 J12_18            104.80          1.00
 J12_19            104.90          1.10
 J13_00            103.25          1.30
 J13_01            103.35          1.40
 J13_02            103.45          1.00
 J13_03            103.55          1.10
 J13_04            103.65          1.20
 J13_05            103.75          1.30
 J13_06            103.85          1.40
 J13_07            103.95          1.00
 J13_08            104.05          1.10
 J13_09            104.15          1.20
 J13_10            104.25          1.30
 J13_11            104.35          1.40
 J13_12            104.45          1.00
 J13_13            104.55          1.10
 J13_14            104.65          1.20
 J13_15            104.75          1.30
 J13_16            104.85          1.40
 J13_17            104.95          1.00
 J13_18            105.05          1.10
 J13_19            105.15          1.20
 J14_00            103.50          1.40
 J14_01            103.60          1.00
 J14_02            103.70          1.10
 J14_03            103.80          1.20
 J14_04            103.90          1.30
 J14_05            104.00          1.40
 J14_06            104.10          1.00
 J14_07            104.20          1.10
 J14_08            104.30          1.20
 J14_09            104.40          1.30
 J14_10            104.50          1.40
 J14_11            104.60          1.00
 J14_12            104.70          1.10
 J14_13            104.80          1.20
 J14_14            104.90          1.30
 J14_15            105.00          1.40
 J14_16            105.10          1.00
 J14_17            105.20          1.10
 J14_18            105.30          1.20
 J14_19            105.40          1.30
 J15_00            103.75          1.00
 J15_01            103.85          1.10
 J15_02            103.95          1.20
 J15_03            104.05          1.30
 J15_04            104.15          1.40
 J15_05            104.25          1.00
 J15_06            104.35          1.10
 J15_07            104.45          1.20
 J15_08            104.55          1.30
 J15_09            104.65          1.40
 J15_10            104.75          1.00
 J15_11            104.85          1.10
 J15_12            104.95          1.20
 J15_13            105.05          1.30
 J15_14            105.15          1.40
 J15_15            105.25          1.00
 J15_16            105.35          1.10
 J15_17            105.45          1.20
 J15_18            105.55          1.30
 J15_19            105.65          1.40
 J16_00            104.00          1.10
 J16_01            104.10          1.20
 J16_02            104.20          1.30
 J16_03            104.30          1.40
 J16_04            104.40          1.00
 J16_05            104.50          1.10
 J16_06            104.60          1.20
 J16_07            104.70          1.30
 J16_08            104.80          1.40
 J16_09            104.90          1.00
 J16_10            105.00          1.10
 J16_11            105.10          1.20
 J16_12            105.20          1.30
 J16_13            105.30          1.40
 J16_14            105.40          1.00
 J16_15            105.50          1.10
 J16_16            105.60          1.20
 J16_17            105.70          1.30
 J16_18            105.80          1.40
 J16_19            105.90          1.00
 J17_00            104.25          1.20
 J17_01            104.35          1.30
 J17_02            104.45          1.40
 J17_03            104.55          1.00
 J17_04            104.65          1.10
 J17_05            104.75          1.20
 J17_06            104.85          1.30
 J17_07            104.95          1.40
 J17_08            105.05          1.00
 J17_09            105.15          1.10
 J17_10            105.25          1.20
 J17_11            105.35          1.30
 J17_12            105.45          1.40
 J17_13            105.55          1.00
 J17_14            105.65          1.10
 J17_15            105.75          1.20
 J17_16            105.85          1.30
 J17_17            105.95          1.40
 J17_18            106.05          1.00
 J17_19            106.15          1.10
 J18_00            104.50          1.30
 J18_01            104.60          1.40
 J18_02            104.70          1.00
 J18_03            104.80          1.10
 J18_04            104.90          1.20
 J18_05            105.00          1.30
 J18_06            105.10          1.40
 J18_07            105.20          1.00
 J18_08            105.30          1.10
 J18_09            105.40          1.20
 J18_10            105.50          1.30
 J18_11            105.60          1.40
 J18_12            105.70          1.00
 J18_13            105.80          1.10
 J18_14            105.90          1.20
 J18_15            106.00          1.30
 J18_16            106.10          1.40
 J18_17            106.20          1.00
 J18_18            106.30          1.10
 J18_19            106.40          1.20
 J19_00            104.75          1.40
 J19_01            104.85          1.00
 J19_02            104.95          1.10
 J19_03            105.05          1.20
 J19_04            105.15          1.30
 J19_05            105.25          1.40
 J19_06            105.35          1.00
 J19_07            105.45          1.10
 J19_08            105.55          1.20
 J19_09            105.65          1.30
 J19_10            105.75          1.40
 J19_11            105.85          1.00
 J19_12            105.95          1.10
 J19_13            106.05          1.20
 J19_14            106.15          1.30
 J19_15            106.25          1.40
 J19_16            106.35          1.00
 J19_17            106.45          1.10
 J19_18            106.55          1.20
 J19_19            106.65          1.30

[RESERVOIRS]
;ID                 Head            Pattern
 R1                  220.0

[PIPES]
;ID                 Node1               Node2               Length          Diameter        Roughness       MinorLoss       Status
 P0001              R1                  J00_00              1000            24              110             0               Open
 P0002              J00_00              J00_01              500             8               110             0               Open
 P0003              J00_01              J00_02              500             8               110             0               Open
 P0004              J00_02              J00_03              500             8               110             0               Open
 P0005              J00_03              J00_04              500             8               110             0               Open
 P0006              J00_04              J00_05              500             8               110             0               Open
 P0007              J00_05              J00_06              500             8               110             0               Open
 P0008              J00_06              J00_07              500             8               110             0               Open
 P0009              J00_07              J00_08              500             8               110             0               Open
 P0010              J00_08              J00_09              500             8               110             0               Open
 P0011              J00_09              J00_10              500             8               110             0               Open
 P0012              J00_10              J00_11              500             8               110             0               Open
 P0013              J00_11              J00_12              500             8               110             0               Open
 P0014              J00_12              J00_13              500             8               110             0               Open
 P0015              J00_13              J00_14              500             8               110             0               Open
 P0016              J00_14              J00_15              500             8               110             0               Open
 P0017              J00_15              J00_16              500             8               110             0               Open
 P0018              J00_16              J00_17              500             8               110             0               Open
 P0019              J00_17              J00_18              500             8               110             0               Open
 P0020              J00_18              J00_19              500             8               110             0               Open
 P0021              J01_00              J01_01              500             8               110             0               Open
 P0022              J01_01              J01_02              500             8               110             0               Open
 P0023              J01_02              J01_03              500             8               110             0               Open
 P0024              J01_03              J01_04              500             8               110             0               Open
 P0025              J01_04              J01_05              500             8               110             0               Open
 P0026              J01_05              J01_06              500             8               110             0               Open
 P0027              J01_06              J01_07              500             8               110             0               Open
 P0028              J01_07              J01_08              500             8               110             0               Open
 P0029              J01_08              J01_09              500             8               110             0               Open
 P0030              J01_09              J01_10              500             8               110             0               Open
 P0031              J01_10              J01_11              500             8               110             0               Open
 P0032              J01_11              J01_12              500             8               110             0               Open
 P0033              J01_12              J01_13              500             8               110             0               Open
 P0034              J01_13              J01_14              500             8               110             0               Open
 P0035              J01_14              J01_15              500             8               110             0               Open
 P0036              J01_15              J01_16              500             8               110             0               Open
 P0037              J01_16              J01_17              500             8               110             0               Open
 P0038              J01_17              J01_18              500             8               110             0               Open
 P0039              J01_18              J01_19              500             8               110             0               Open
 P0040              J02_00              J02_01              500             8               110             0               Open
 P0041              J02_01              J02_02              500             8               110             0               Open
 P0042              J02_02              J02_03              500             8               110             0               Open
 P0043              J02_03              J02_04              500             8               110             0               Open
 P0044              J02_04              J02_05              500             8               110             0               Open
 P0045              J02_05              J02_06              500             8               110             0               Open
 P0046              J02_06              J02_07              500             8               110             0               Open
 P0047              J02_07              J02_08              500             8               110             0               Open
 P0048              J02_08              J02_09              500             8               110             0               Open
 P0049              J02_09              J02_10              500             8               110             0               Open
 P0050              J02_10              J02_11              500             8               110             0               Open
 P0051              J02_11              J02_12              500             8               110             0               Open
 P0052              J02_12              J02_13              500             8               110             0               Open
 P0053              J02_13              J02_14              500             8               110             0               Open
 P0054              J02_14              J02_15              500             8               110             0               Open
 P0055              J02_15              J02_16              500             8               110             0               Open
 P0056              J02_16              J02_17              500             8               110             0               Open
 P0057              J02_17              J02_18              500             8               110             0               Open
 P0058              J02_18              J02_19              500             8               110             0               Open
 P0059              J03_00              J03_01              500             8               110             0               Open
 P0060              J03_01              J03_02              500             8               110             0               Open
 P0061              J03_02              J03_03              500             8               110             0               Open
 P0062              J03_03              J03_04              500             8               110             0               Open
 P0063              J03_04              J03_05              500             8               110             0               Open
 P0064              J03_05              J03_06              500             8               110             0               Open
 P0065              J03_06              J03_07              500             8               110             0               Open
 P0066              J03_07              J03_08              500             8               110             0               Open
 P0067              J03_08              J03_09              500             8               110             0               Open
 P0068              J03_09              J03_10              500             8               110             0               Open
 P0069              J03_10              J03_11              500             8               110             0               Open
 P0070              J03_11              J03_12              500             8               110             0               Open
 P0071              J03_12              J03_13              500             8               110             0               Open
 P0072              J03_13              J03_14              500             8               110             0               Open
 P0073              J03_14              J03_15              500             8               110             0               Open
 P0074              J03_15              J03_16              500             8               110             0               Open
 P0075              J03_16              J03_17              500             8               110             0               Open
 P0076              J03_17              J03_18              500             8               110             0               Open
 P0077              J03_18              J03_19              500             8               110             0               Open
 P0078              J04_00              J04_01              500             8               110             0               Open
 P0079              J04_01              J04_02              500             8               110             0               Open
 P0080              J04_02              J04_03              500             8               110             0               Open
 P0081              J04_03              J04_04              500             8               110             0               Open
 P0082              J04_04              J04_05              500             8               110             0               Open
 P0083              J04_05              J04_06              500             8               110             0               Open
 P0084              J04_06              J04_07              500             8               110             0               Open
 P0085              J04_07              J04_08              500             8               110             0               Open
 P0086              J04_08              J04_09              500             8               110             0               Open
 P0087              J04_09              J04_10              500             8               110             0               Open
 P0088              J04_10              J04_11              500             8               110             0               Open
 P0089              J04_11              J04_12              500             8               110             0               Open
 P0090              J04_12              J04_13              500             8               110             0               Open
 P0091              J04_13              J04_14              500             8               110             0               Open
 P0092              J04_14              J04_15              500             8               110             0               Open
 P0093              J04_15              J04_16              500             8               110             0               Open
 P0094              J04_16              J04_17              500             8               110             0               Open
 P0095              J04_17              J04_18              500             8               110             0               Open
 P0096              J04_18              J04_19              500             8               110             0               Open
 P0097              J05_00              J05_01              500             8               110             0               Open
 P0098              J05_01              J05_02              500             8               110             0               Open
 P0099              J05_02              J05_03              500             8               110             0               Open
 P0100              J05_03              J05_04              500             8               110             0               Open
 P0101              J05_04              J05_05              500             8               110             0               Open
 P0102              J05_05              J05_06              500             8               110             0               Open
 P0103              J05_06              J05_07              500             8               110             0               Open
 P0104              J05_07              J05_08              500             8               110             0               Open
 P0105              J05_08              J05_09              500             8               110             0               Open
 P0106              J05_09              J05_10              500             8               110             0               Open
 P0107              J05_10              J05_11              500             8               110             0               Open
 P0108              J05_11              J05_12              500             8               110             0               Open
 P0109              J05_12              J05_13              500             8               110             0               Open
 P0110              J05_13              J05_14              500             8               110             0               Open
 P0111              J05_14              J05_15              500             8               110             0               Open
 P0112              J05_15              J05_16              500             8               110             0               Open
 P0113              J05_16              J05_17              500             8               110             0               Open
 P0114              J05_17              J05_18              500             8               110             0               Open
 P0115              J05_18              J05_19              500             8               110             0               Open
 P0116              J06_00              J06_01              500             8               110             0               Open
 P0117              J06_01              J06_02              500             8               110             0               Open
 P0118              J06_02              J06_03              500             8               110             0               Open
 P0119              J06_03              J06_04              500             8               110             0               Open
 P0120              J06_04              J06_05              500             8               110             0               Open
 P0121              J06_05              J06_06              500             8               110             0               Open
 P0122              J06_06              J06_07              500             8               110             0               Open
 P0123              J06_07              J06_08              500             8               110             0               Open
 P0124              J06_08              J06_09              500             8               110             0               Open
 P0125              J06_09              J06_10              500             8               110             0               Open
 P0126              J06_10              J06_11              500             8               110             0               Open
 P0127              J06_11              J06_12              500             8               110             0               Open
 P0128              J06_12              J06_13              500             8               110             0               Open
 P0129              J06_13              J06_14              500             8               110             0               Open
 P0130              J06_14              J06_15              500             8               110             0               Open
 P0131              J06_15              J06_16              500             8               110             0               Open
 P0132              J06_16              J06_17              500             8               110             0               Open
 P0133              J06_17              J06_18              500             8               110             0               Open
 P0134              J06_18              J06_19              500             8               110             0               Open
 P0135              J07_00              J07_01              500             8               110             0               Open
 P0136              J07_01              J07_02              500             8               110             0               Open
 P0137              J07_02              J07_03              500             8               110             0               Open
 P0138              J07_03              J07_04              500             8               110             0               Open
 P0139              J07_04              J07_05              500             8               110             0               Open
 P0140              J07_05              J07_06              500             8               110             0               Open
 P0141              J07_06              J07_07              500             8               110             0               Open
 P0142              J07_07              J07_08              500             8               110             0               Open
 P0143              J07_08              J07_09              500             8               110             0               Open
 P0144              J07_09              J07_10              500             8               110             0               Open
 P0145              J07_10              J07_11              500             8               110             0               Open
 P0146              J07_11              J07_12              500             8               110             0               Open
 P0147              J07_12              J07_13              500             8               110             0               Open
 P0148              J07_13              J07_14              500             8               110             0               Open
 P0149              J07_14              J07_15              500             8               110             0               Open
 P0150              J07_15              J07_16              500             8               110             0               Open
 P0151              J07_16              J07_17              500             8               110             0               Open
 P0152              J07_17              J07_18              500             8               110             0               Open
 P0153              J07_18              J07_19              500             8               110             0               Open
 P0154              J08_00              J08_01              500             8               110             0               Open
 P0155              J08_01              J08_02              500             8               110             0               Open
 P0156              J08_02              J08_03              500             8               110             0               Open
 P0157              J08_03              J08_04              500             8               110             0               Open
 P0158              J08_04              J08_05              500             8               110             0               Open
 P0159              J08_05              J08_06              500             8               110             0               Open
 P0160              J08_06              J08_07              500             8               110             0               Open
 P0161              J08_07              J08_08              500             8               110             0               Open
 P0162              J08_08              J08_09              500             8               110             0               Open
 P0163              J08_09              J08_10              500             8               110             0               Open
 P0164              J08_10              J08_11              500             8               110             0               Open
 P0165              J08_11              J08_12              500             8               110             0               Open
 P0166              J08_12              J08_13              500             8               110             0               Open
 P0167              J08_13              J08_14              500             8               110             0               Open
 P0168              J08_14              J08_15              500             8               110             0               Open
 P0169              J08_15              J08_16              500             8               110             0               Open
 P0170              J08_16              J08_17              500             8               110             0               Open
 P0171              J08_17              J08_18              500             8               110             0               Open
 P0172              J08_18              J08_19              500             8               110             0               Open
 P0173              J09_00              J09_01              500             8               110             0               Open
 P0174              J09_01              J09_02              500             8               110             0               Open
 P0175              J09_02              J09_03              500             8               110             0               Open
 P0176              J09_03              J09_04              500             8               110             0               Open
 P0177              J09_04              J09_05              500             8               110             0               Open
 P0178              J09_05              J09_06              500             8               110             0               Open
 P0179              J09_06              J09_07              500             8               110             0               Open
 P0180              J09_07              J09_08              500             8               110             0               Open
 P0181              J09_08              J09_09              500             8               110             0               Open
 P0182              J09_09              J09_10              500             8               110             0               Open
 P0183              J09_10              J09_11              500             8               110             0               Open
 P0184              J09_11              J09_12              500             8               110             0               Open
 P0185              J09_12              J09_13              500             8               110             0               Open
 P0186              J09_13              J09_14              500             8               110             0               Open
 P0187              J09_14              J09_15              500             8               110             0               Open
 P0188              J09_15              J09_16              500             8               110             0               Open
 P0189              J09_16              J09_17              500             8               110             0               Open
 P0190              J09_17              J09_18              500             8               110             0               Open
 P0191              J09_18              J09_19              500             8               110             0               Open
 P0192              J10_00              J10_01              500             8               110             0               Open
 P0193              J10_01              J10_02              500             8               110             0               Open
 P0194              J10_02              J10_03              500             8               110             0               Open
 P0195              J10_03              J10_04              500             8               110             0               Open
 P0196              J10_04              J10_05              500             8               110             0               Open
 P0197              J10_05              J10_06              500             8               110             0               Open
 P0198              J10_06              J10_07              500             8               110             0               Open
 P0199              J10_07              J10_08              500             8               110             0               Open
 P0200              J10_08              J10_09              500             8               110             0               Open
 P0201              J10_09              J10_10              500             8               110             0               Open
 P0202              J10_10              J10_11              500             8               110             0               Open
 P0203              J10_11              J10_12              500             8               110             0               Open
 P0204              J10_12              J10_13              500             8               110             0               Open
 P0205              J10_13              J10_14              500             8               110             0               Open
 P0206              J10_14              J10_15              500             8               110             0               Open
 P0207              J10_15              J10_16              500             8               110             0               Open
 P0208              J10_16              J10_17              500             8               110             0               Open
 P0209              J10_17              J10_18              500             8               110             0               Open
 P0210              J10_18              J10_19              500             8               110             0               Open
 P0211              J11_00              J11_01              500             8               110             0               Open
 P0212              J11_01              J11_02              500             8               110             0               Open
 P0213              J11_02              J11_03              500             8               110             0               Open
 P0214              J11_03              J11_04              500             8               110             0               Open
 P0215              J11_04              J11_05              500             8               110             0               Open
 P0216              J11_05              J11_06              500             8               110             0               Open
 P0217              J11_06              J11_07              500             8               110             0               Open
 P0218              J11_07              J11_08              500             8               110             0               Open
 P0219              J11_08              J11_09              500             8               110             0               Open
 P0220              J11_09              J11_10              500             8               110             0               Open
 P0221              J11_10              J11_11              500             8               110             0               Open
 P0222              J11_11              J11_12              500             8               110             0               Open
 P0223              J11_12              J11_13              500             8               110             0               Open
 P0224              J11_13              J11_14              500             8               110             0               Open
 P0225              J11_14              J11_15              500             8               110             0               Open
 P0226              J11_15              J11_16              500             8               110             0               Open
 P0227              J11_16              J11_17              500             8               110             0               Open
 P0228              J11_17              J11_18              500             8               110             0               Open
 P0229              J11_18              J11_19              500             8               110             0               Open
 P0230              J12_00              J12_01              500             8               110             0               Open
 P0231              J12_01              J12_02              500             8               110             0               Open
 P0232              J12_02              J12_03              500             8               110             0               Open
 P0233              J12_03              J12_04              500             8               110             0               Open
 P0234              J12_04              J12_05              500             8               110             0               Open
 P0235              J12_05              J12_06              500             8               110             0               Open
 P0236              J12_06              J12_07              500             8               110             0               Open
 P0237              J12_07              J12_08              500             8               110             0               Open
 P0238              J12_08              J12_09              500             8               110             0               Open
 P0239              J12_09              J12_10              500             8               110             0               Open
 P0240              J12_10              J12_11              500             8               110             0               Open
 P0241              J12_11              J12_12              500             8               110             0               Open
 P0242              J12_12              J12_13              500             8               110             0               Open
 P0243              J12_13              J12_14              500             8               110             0               Open
 P0244              J12_14              J12_15              500             8               110             0               Open
 P0245              J12_15              J12_16              500             8               110             0               Open
 P0246              J12_16              J12_17              500             8               110             0               Open
 P0247              J12_17              J12_18              500             8               110             0               Open
 P0248              J12_18              J12_19              500             8               110             0               Open
 P0249              J13_00              J13_01              500             8               110             0               Open
 P0250              J13_01              J13_02              500             8               110             0               Open
 P0251              J13_02              J13_03              500             8               110             0               Open
 P0252              J13_03              J13_04              500             8               110             0               Open
 P0253              J13_04              J13_05              500             8               110             0               Open
 P0254              J13_05              J13_06              500             8               110             0               Open
 P0255              J13_06              J13_07              500             8               110             0               Open
 P0256              J13_07              J13_08              500             8               110             0               Open
 P0257              J13_08              J13_09              500             8               110             0               Open
 P0258              J13_09              J13_10              500             8               110             0               Open
 P0259              J13_10              J13_11              500             8               110             0               Open
 P0260              J13_11              J13_12              500             8               110             0               Open
 P0261              J13_12              J13_13              500             8               110             0               Open
 P0262              J13_13              J13_14              500             8               110             0               Open
 P0263              J13_14              J13_15              500             8               110             0               Open
 P0264              J13_15              J13_16              500             8               110             0               Open
 P0265              J13_16              J13_17              500             8               110             0               Open
 P0266              J13_17              J13_18              500             8               110             0               Open
 P0267              J13_18              J13_19              500             8               110             0               Open
 P0268              J14_00              J14_01              500             8               110             0               Open
 P0269              J14_01              J14_02              500             8               110             0               Open
 P0270              J14_02              J14_03              500             8               110             0               Open
 P0271              J14_03              J14_04              500             8               110             0               Open
 P0272              J14_04              J14_05              500             8               110             0               Open
 P0273              J14_05              J14_06              500             8               110             0               Open
 P0274              J14_06              J14_07              500             8               110             0               Open
 P0275              J14_07              J14_08              500             8               110             0               Open
 P0276              J14_08              J14_09              500             8               110             0               Open
 P0277              J14_09              J14_10              500             8               110             0               Open
 P0278              J14_10              J14_11              500             8               110             0               Open
 P0279              J14_11              J14_12              500             8               110             0               Open
 P0280              J14_12              J14_13              500             8               110             0               Open
 P0281              J14_13              J14_14              500             8               110             0               Open
 P0282              J14_14              J14_15              500             8               110             0               Open
 P0283              J14_15              J14_16              500             8               110             0               Open
 P0284              J14_16              J14_17              500             8               110             0               Open
 P0285              J14_17              J14_18              500             8               110             0               Open
 P0286              J14_18              J14_19              500             8               110             0               Open
 P0287              J15_00              J15_01              500             8               110             0               Open
 P0288              J15_01              J15_02              500             8               110             0               Open
 P0289              J15_02              J15_03              500             8               110             0               Open
 P0290              J15_03              J15_04              500             8               110             0               Open
 P0291              J15_04              J15_05              500             8               110             0               Open
 P0292              J15_05              J15_06              500             8               110             0               Open
 P0293              J15_06              J15_07              500             8               110             0               Open
 P0294              J15_07              J15_08              500             8               110             0               Open
 P0295              J15_08              J15_09              500             8               110             0               Open
 P0296              J15_09              J15_10              500             8               110             0               Open
 P0297              J15_10              J15_11              500             8               110             0               Open
 P0298              J15_11              J15_12              500             8               110             0               Open
 P0299              J15_12              J15_13              500             8               110             0               Open
 P0300              J15_13              J15_14              500             8               110             0               Open
 P0301              J15_14              J15_15              500             8               110             0               Open
 P0302              J15_15              J15_16              500             8               110             0               Open
 P0303              J15_16              J15_17              500             8               110             0               Open
 P0304              J15_17              J15_18              500             8               110             0               Open
 P0305              J15_18              J15_19              500             8               110             0               Open
 P0306              J16_00              J16_01              500             8               110             0               Open
 P0307              J16_01              J16_02              500             8               110             0               Open
 P0308              J16_02              J16_03              500             8               110             0               Open
 P0309              J16_03              J16_04              500             8               110             0               Open
 P0310              J16_04              J16_05              500             8               110             0               Open
 P0311              J16_05              J16_06              500             8               110             0               Open
 P0312              J16_06              J16_07              500             8               110             0               Open
 P0313              J16_07              J16_08              500             8               110             0               Open
 P0314              J16_08              J16_09              500             8               110             0               Open
 P0315              J16_09              J16_10              500             8               110             0               Open
 P0316              J16_10              J16_11              500             8               110             0               Open
 P0317              J16_11              J16_12              500             8               110             0               Open
 P0318              J16_12              J16_13              500             8               110             0               Open
 P0319              J16_13              J16_14              500             8               110             0               Open
 P0320              J16_14              J16_15              500             8               110             0               Open
 P0321              J16_15              J16_16              500             8               110             0               Open
 P0322              J16_16              J16_17              500             8               110             0               Open
 P0323              J16_17              J16_18              500             8               110             0               Open
 P0324              J16_18              J16_19              500             8               110             0               Open
 P0325              J17_00              J17_01              500             8               110             0               Open
 P0326              J17_01              J17_02              500             8               110             0               Open
 P0327              J17_02              J17_03              500             8               110             0               Open
 P0328              J17_03              J17_04              500             8               110             0               Open
 P0329              J17_04              J17_05              500             8               110             0               Open
 P0330              J17_05              J17_06              500             8               110             0               Open
 P0331              J17_06              J17_07              500             8               110             0               Open
 P0332              J17_07              J17_08              500             8               110             0               Open
 P0333              J17_08              J17_09              500             8               110             0               Open
 P0334              J17_09              J17_10              500             8               110             0               Open
 P0335              J17_10              J17_11              500             8               110             0               Open
 P0336              J17_11              J17_12              500             8               110             0               Open
 P0337              J17_12              J17_13              500             8               110             0               Open
 P0338              J17_13              J17_14              500             8               110             0               Open
 P0339              J17_14              J17_15              500             8               110             0               Open
 P0340              J17_15              J17_16              500             8               110             0               Open
 P0341              J17_16              J17_17              500             8               110             0               Open
 P0342              J17_17              J17_18              500             8               110             0               Open
 P0343              J17_18              J17_19              500             8               110             0               Open
 P0344              J18_00              J18_01              500             8               110             0               Open
 P0345              J18_01              J18_02              500             8               110             0               Open
 P0346              J18_02              J18_03              500             8               110             0               Open
 P0347              J18_03              J18_04              500             8               110             0               Open
 P0348              J18_04              J18_05              500             8               110             0               Open
 P0349              J18_05              J18_06              500             8               110             0               Open
 P0350              J18_06              J18_07              500             8               110             0               Open
 P0351              J18_07              J18_08              500             8               110             0               Open
 P0352              J18_08              J18_09              500             8               110             0               Open
 P0353              J18_09              J18_10              500             8               110             0               Open
 P0354              J18_10              J18_11              500             8               110             0               Open
 P0355              J18_11              J18_12              500             8               110             0               Open
 P0356              J18_12              J18_13              500             8               110             0               Open
 P0357              J18_13              J18_14              500             8               110             0               Open
 P0358              J18_14              J18_15              500             8               110             0               Open
 P0359              J18_15              J18_16              500             8               110             0               Open
 P0360              J18_16              J18_17              500             8               110             0               Open
 P0361              J18_17              J18_18              500             8               110             0               Open
 P0362              J18_18              J18_19              500             8               110             0               Open
 P0363              J19_00              J19_01              500             8               110             0               Open
 P0364              J19_01              J19_02              500             8               110             0               Open
 P0365              J19_02              J19_03              500             8               110             0               Open
 P0366              J19_03              J19_04              500             8               110             0               Open
 P0367              J19_04              J19_05              500             8               110             0               Open
 P0368              J19_05              J19_06              500             8               110             0               Open
 P0369              J19_06              J19_07              500             8               110             0               Open
 P0370              J19_07              J19_08              500             8               110             0               Open
 P0371              J19_08              J19_09              500             8               110             0               Open
 P0372              J19_09              J19_10              500             8               110             0               Open
 P0373              J19_10              J19_11              500             8               110             0               Open
 P0374              J19_11              J19_12              500             8               110             0               Open
 P0375              J19_12              J19_13              500             8               110             0               Open
 P0376              J19_13              J19_14              500             8               110             0               Open
 P0377              J19_14              J19_15              500             8               110             0               Open
 P0378              J19_15              J19_16              500             8               110             0               Open
 P0379              J19_16              J19_17              500             8               110             0               Open
 P0380              J19_17              J19_18              500             8               110             0               Open
 P0381              J19_18              J19_19              500             8               110             0               Open
 P0382              J00_00              J01_00              500             8               110             0               Open
 P0383              J00_01              J01_01              500             8               110             0               Open
 P0384              J00_02              J01_02              500             8               110             0               Open
 P0385              J00_03              J01_03              500             8               110             0               Open
 P0386              J00_04              J01_04              500             8               110             0               Open
 P0387              J00_05              J01_05              500             8               110             0               Open
 P0388              J00_06              J01_06              500             8               110             0               Open
 P0389              J00_07              J01_07              500             8               110             0               Open
 P0390              J00_08              J01_08              500             8               110             0               Open
 P0391              J00_09              J01_09              500             8               110             0               Open
 P0392              J00_10              J01_10              500             8               110             0               Open
 P0393              J00_11              J01_11              500             8               110             0               Open
 P0394              J00_12              J01_12              500             8               110             0               Open
 P0395              J00_13              J01_13              500             8               110             0               Open
 P0396              J00_14              J01_14              500             8               110             0               Open
 P0397              J00_15              J01_15              500             8               110             0               Open
 P0398              J00_16              J01_16              500             8               110             0               Open
 P0399              J00_17              J01_17              500             8               110             0               Open
 P0400              J00_18              J01_18              500             8               110             0               Open
 P0401              J00_19              J01_19              500             8               110             0               Open
 P0402              J01_00              J02_00              500             8               110             0               Open
 P0403              J01_01              J02_01              500             8               110             0               Open
 P0404              J01_02              J02_02              500             8               110             0               Open
 P0405              J01_03              J02_03              500             8               110             0               Open
 P0406              J01_04              J02_04              500             8               110             0               Open
 P0407              J01_05              J02_05              500             8               110             0               Open
 P0408              J01_06              J02_06              500             8               110             0               Open
 P0409              J01_07              J02_07              500             8               110             0               Open
 P0410              J01_08              J02_08              500             8               110             0               Open
 P0411              J01_09              J02_09              500             8               110             0               Open
 P0412              J01_10              J02_10              500             8               110             0               Open
 P0413              J01_11              J02_11              500             8               110             0               Open
 P0414              J01_12              J02_12              500             8               110             0               Open
 P0415              J01_13              J02_13              500             8               110             0               Open
 P0416              J01_14              J02_14              500             8               110             0               Open
 P0417              J01_15              J02_15              500             8               110             0               Open
 P0418              J01_16              J02_16              500             8               110             0               Open
 P0419              J01_17              J02_17              500             8               110             0               Open
 P0420              J01_18              J02_18              500             8               110             0               Open
 P0421              J01_19              J02_19              500             8               110             0               Open
 P0422              J02_00              J03_00              500             8               110             0               Open
 P0423              J02_01              J03_01              500             8               110             0               Open
 P0424              J02_02              J03_02              500             8               110             0               Open
 P0425              J02_03              J03_03              500             8               110             0               Open
 P0426              J02_04              J03_04              500             8               110             0               Open
 P0427              J02_05              J03_05              500             8               110             0               Open
 P0428              J02_06              J03_06              500             8               110             0               Open
 P0429              J02_07              J03_07              500             8               110             0               Open
 P0430              J02_08              J03_08              500             8               110             0               Open
 P0431              J02_09              J03_09              500             8               110             0               Open
 P0432              J02_10              J03_10              500             8               110             0               Open
 P0433              J02_11              J03_11              500             8               110             0               Open
 P0434              J02_12              J03_12              500             8               110             0               Open
 P0435              J02_13              J03_13              500             8               110             0               Open
 P0436              J02_14              J03_14              500             8               110             0               Open
 P0437              J02_15              J03_15              500             8               110             0               Open
 P0438              J02_16              J03_16              500             8               110             0               Open
 P0439              J02_17              J03_17              500             8               110             0               Open
 P0440              J02_18              J03_18              500             8               110             0               Open
 P0441              J02_19              J03_19              500             8               110             0               Open
 P0442              J03_00              J04_00              500             8               110             0               Open
 P0443              J03_01              J04_01              500             8               110             0               Open
 P0444              J03_02              J04_02              500             8               110             0               Open
 P0445              J03_03              J04_03              500             8               110             0               Open
 P0446              J03_04              J04_04              500             8               110             0               Open
 P0447              J03_05              J04_05              500             8               110             0               Open
 P0448              J03_06              J04_06              500             8               110             0               Open
 P0449              J03_07              J04_07              500             8               110             0               Open
 P0450              J03_08              J04_08              500             8               110             0               Open
 P0451              J03_09              J04_09              500             8               110             0               Open
 P0452              J03_10              J04_10              500             8               110             0               Open
 P0453              J03_11              J04_11              500             8               110             0               Open
 P0454              J03_12              J04_12              500             8               110             0               Open
 P0455              J03_13              J04_13              500             8               110             0               Open
 P0456              J03_14              J04_14              500             8               110             0               Open
 P0457              J03_15              J04_15              500             8               110             0               Open
 P0458              J03_16              J04_16              500             8               110             0               Open
 P0459              J03_17              J04_17              500             8               110             0               Open
 P0460              J03_18              J04_18              500             8               110             0               Open
 P0461              J03_19              J04_19              500             8               110             0               Open
 P0462              J04_00              J05_00              500             8               110             0               Open
 P0463              J04_01              J05_01              500             8               110             0               Open
 P0464              J04_02              J05_02              500             8               110             0               Open
 P0465              J04_03              J05_03              500             8               110             0               Open
 P0466              J04_04              J05_04              500             8               110             0               Open
 P0467              J04_05              J05_05              500             8               110             0               Open
 P0468              J04_06              J05_06              500             8               110             0               Open
 P0469              J04_07              J05_07              500             8               110             0               Open
 P0470              J04_08              J05_08              500             8               110             0               Open
 P0471              J04_09              J05_09              500             8               110             0               Open
 P0472              J04_10              J05_10              500             8               110             0               Open
 P0473              J04_11              J05_11              500             8               110             0               Open
 P0474              J04_12              J05_12              500             8               110             0               Open
 P0475              J04_13              J05_13              500             8               110             0               Open
 P0476              J04_14              J05_14              500             8               110             0               Open
 P0477              J04_15              J05_15              500             8               110             0               Open
 P0478              J04_16              J05_16              500             8               110             0               Open
 P0479              J04_17              J05_17              500             8               110             0               Open
 P0480              J04_18              J05_18              500             8               110             0               Open
 P0481              J04_19              J05_19              500             8               110             0               Open
 P0482              J05_00              J06_00              500             8               110             0               Open
 P0483              J05_01              J06_01              500             8               110             0               Open
 P0484              J05_02              J06_02              500             8               110             0               Open
 P0485              J05_03              J06_03              500             8               110             0               Open
 P0486              J05_04              J06_04              500             8               110             0               Open
 P0487              J05_05              J06_05              500             8               110             0               Open
 P0488              J05_06              J06_06              500             8               110             0               Open
 P0489              J05_07              J06_07              500             8               110             0               Open
 P0490              J05_08              J06_08              500             8               110             0               Open
 P0491              J05_09              J06_09              500             8               110             0               Open
 P0492              J05_10              J06_10              500             8               110             0               Open
 P0493              J05_11              J06_11              500             8               110             0               Open
 P0494              J05_12              J06_12              500             8               110             0               Open
 P0495              J05_13              J06_13              500             8               110             0               Open
 P0496              J05_14              J06_14              500             8               110             0               Open
 P0497              J05_15              J06_15              500             8               110             0               Open
 P0498              J05_16              J06_16              500             8               110             0               Open
 P0499              J05_17              J06_17              500             8               110             0               Open
 P0500              J05_18              J06_18              500             8               110             0               Open
 P0501              J05_19              J06_19              500             8               110             0               Open
 P0502              J06_00              J07_00              500             8               110             0               Open
 P0503              J06_01              J07_01              500             8               110             0               Open
 P0504              J06_02              J07_02              500             8               110             0               Open
 P0505              J06_03              J07_03              500             8               110             0               Open
 P0506              J06_04              J07_04              500             8               110             0               Open
 P0507              J06_05              J07_05              500             8               110             0               Open
 P0508              J06_06              J07_06              500             8               110             0               Open
 P0509              J06_07              J07_07              500             8               110             0               Open
 P0510              J06_08              J07_08              500             8               110             0               Open
 P0511              J06_09              J07_09              500             8               110             0               Open
 P0512              J06_10              J07_10              500             8               110             0               Open
 P0513              J06_11              J07_11              500             8               110             0               Open
 P0514              J06_12              J07_12              500             8               110             0               Open
 P0515              J06_13              J07_13              500             8               110             0               Open
 P0516              J06_14              J07_14              500             8               110             0               Open
 P0517              J06_15              J07_15              500             8               110             0               Open
 P0518              J06_16              J07_16              500             8               110             0               Open
 P0519              J06_17              J07_17              500             8               110             0               Open
 P0520              J06_18              J07_18              500             8               110             0               Open
 P0521              J06_19              J07_19              500             8               110             0               Open
 P0522              J07_00              J08_00              500             8               110             0               Open
 P0523              J07_01              J08_01              500             8               110             0               Open
 P0524              J07_02              J08_02              500             8               110             0               Open
 P0525              J07_03              J08_03              500             8               110             0               Open
 P0526              J07_04              J08_04              500             8               110             0               Open
 P0527              J07_05              J08_05              500             8               110             0               Open
 P0528              J07_06              J08_06              500             8               110             0               Open
 P0529              J07_07              J08_07              500             8               110             0               Open
 P0530              J07_08              J08_08              500             8               110             0               Open
 P0531              J07_09              J08_09              500             8               110             0               Open
 P0532              J07_10              J08_10              500             8               110             0               Open
 P0533              J07_11              J08_11              500             8               110             0               Open
 P0534              J07_12              J08_12              500             8               110             0               Open
 P0535              J07_13              J08_13              500             8               110             0               Open
 P0536              J07_14              J08_14              500             8               110             0               Open
 P0537              J07_15              J08_15              500             8               110             0               Open
 P0538              J07_16              J08_16              500             8               110             0               Open
 P0539              J07_17              J08_17              500             8               110             0               Open
 P0540              J07_18              J08_18              500             8               110             0               Open
 P0541              J07_19              J08_19              500             8               110             0               Open
 P0542              J08_00              J09_00              500             8               110             0               Open
 P0543              J08_01              J09_01              500             8               110             0               Open
 P0544              J08_02              J09_02              500             8               110             0               Open
 P0545              J08_03              J09_03              500             8               110             0               Open
 P0546              J08_04              J09_04              500             8               110             0               Open
 P0547              J08_05              J09_05              500             8               110             0               Open
 P0548              J08_06              J09_06              500             8               110             0               Open
 P0549              J08_07              J09_07              500             8               110             0               Open
 P0550              J08_08              J09_08              500             8               110             0               Open
 P0551              J08_09              J09_09              500             8               110             0               Open
 P0552              J08_10              J09_10              500             8               110             0               Open
 P0553              J08_11              J09_11              500             8               110             0               Open
 P0554              J08_12              J09_12              500             8               110             0               Open
 P0555              J08_13              J09_13              500             8               110             0               Open
 P0556              J08_14              J09_14              500             8               110             0               Open
 P0557              J08_15              J09_15              500             8               110             0               Open
 P0558              J08_16              J09_16              500             8               110             0               Open
 P0559              J08_17              J09_17              500             8               110             0               Open
 P0560              J08_18              J09_18              500             8               110             0               Open
 P0561              J08_19              J09_19              500             8               110             0               Open
 P0562              J09_00              J10_00              500             8               110             0               Open
 P0563              J09_01              J10_01              500             8               110             0               Open
 P0564              J09_02              J10_02              500             8               110             0               Open
 P0565              J09_03              J10_03              500             8               110             0               Open
 P0566              J09_04              J10_04              500             8               110             0               Open
 P0567              J09_05              J10_05              500             8               110             0               Open
 P0568              J09_06              J10_06              500             8               110             0               Open
 P0569              J09_07              J10_07              500             8               110             0               Open
 P0570              J09_08              J10_08              500             8               110             0               Open
 P0571              J09_09              J10_09              500             8               110             0               Open
 P0572              J09_10              J10_10              500             8               110             0               Open
 P0573              J09_11              J10_11              500             8               110             0               Open
 P0574              J09_12              J10_12              500             8               110             0               Open
 P0575              J09_13              J10_13              500             8               110             0               Open
 P0576              J09_14              J10_14              500             8               110             0               Open
 P0577              J09_15              J10_15              500             8               110             0               Open
 P0578              J09_16              J10_16              500             8               110             0               Open
 P0579              J09_17              J10_17              500             8               110             0               Open
 P0580              J09_18              J10_18              500             8               110             0               Open
 P0581              J09_19              J10_19              500             8               110             0               Open
 P0582              J10_00              J11_00              500             8               110             0               Open
 P0583              J10_01              J11_01              500             8               110             0               Open
 P0584              J10_02              J11_02              500             8               110             0               Open
 P0585              J10_03              J11_03              500             8               110             0               Open
 P0586              J10_04              J11_04              500             8               110             0               Open
 P0587              J10_05              J11_05              500             8               110             0               Open
 P0588              J10_06              J11_06              500             8               110             0               Open
 P0589              J10_07              J11_07              500             8               110             0               Open
 P0590              J10_08              J11_08              500             8               110             0               Open
 P0591              J10_09              J11_09              500             8               110             0               Open
 P0592              J10_10              J11_10              500             8               110             0               Open
 P0593              J10_11              J11_11              500             8               110             0               Open
 P0594              J10_12              J11_12              500             8               110             0               Open
 P0595              J10_13              J11_13              500             8               110             0               Open
 P0596              J10_14              J11_14              500             8               110             0               Open
 P0597              J10_15              J11_15              500             8               110             0               Open
 P0598              J10_16              J11_16              500             8               110             0               Open
 P0599              J10_17              J11_17              500             8               110             0               Open
 P0600              J10_18              J11_18              500             8               110             0               Open
 P0601              J10_19              J11_19              500             8               110             0               Open
 P0602              J11_00              J12_00              500             8               110             0               Open
 P0603              J11_01              J12_01              500             8               110             0               Open
 P0604              J11_02              J12_02              500             8               110             0               Open
 P0605              J11_03              J12_03              500             8               110             0               Open
 P0606              J11_04              J12_04              500             8               110             0               Open
 P0607              J11_05              J12_05              500             8               110             0               Open
 P0608              J11_06              J12_06              500             8               110             0               Open
 P0609              J11_07              J12_07              500             8               110             0               Open
 P0610              J11_08              J12_08              500             8               110             0               Open
 P0611              J11_09              J12_09              500             8               110             0               Open
 P0612              J11_10              J12_10              500             8               110             0               Open
 P0613              J11_11              J12_11              500             8               110             0               Open
 P0614              J11_12              J12_12              500             8               110             0               Open
 P0615              J11_13              J12_13              500             8               110             0               Open
 P0616              J11_14              J12_14              500             8               110             0               Open
 P0617              J11_15              J12_15              500             8               110             0               Open
 P0618              J11_16              J12_16              500             8               110             0               Open
 P0619              J11_17              J12_17              500             8               110             0               Open
 P0620              J11_18              J12_18              500             8               110             0               Open
 P0621              J11_19              J12_19              500             8               110             0               Open
 P0622              J12_00              J13_00              500             8               110             0               Open
 P0623              J12_01              J13_01              500             8               110             0               Open
 P0624              J12_02              J13_02              500             8               110             0               Open
 P0625              J12_03              J13_03              500             8               110             0               Open
 P0626              J12_04              J13_04              500             8               110             0               Open
 P0627              J12_05              J13_05              500             8               110             0               Open
 P0628              J12_06              J13_06              500             8               110             0               Open
 P0629              J12_07              J13_07              500             8               110             0               Open
 P0630              J12_08              J13_08              500             8               110             0               Open
 P0631              J12_09              J13_09              500             8               110             0               Open
 P0632              J12_10              J13_10              500             8               110             0               Open
 P0633              J12_11              J13_11              500             8               110             0               Open
 P0634              J12_12              J13_12              500             8               110             0               Open
 P0635              J12_13              J13_13              500             8               110             0               Open
 P0636              J12_14              J13_14              500             8               110             0               Open
 P0637              J12_15              J13_15              500             8               110             0               Open
 P0638              J12_16              J13_16              500             8               110             0               Open
 P0639              J12_17              J13_17              500             8               110             0               Open
 P0640              J12_18              J13_18              500             8               110             0               Open
 P0641              J12_19              J13_19              500             8               110             0               Open
 P0642              J13_00              J14_00              500             8               110             0               Open
 P0643              J13_01              J14_01              500             8               110             0               Open
 P0644              J13_02              J14_02              500             8               110             0               Open
 P0645              J13_03              J14_03              500             8               110             0               Open
 P0646              J13_04              J14_04              500             8               110             0               Open
 P0647              J13_05              J14_05              500             8               110             0               Open
 P0648              J13_06              J14_06              500             8               110             0               Open
 P0649              J13_07              J14_07              500             8               110             0               Open
 P0650              J13_08              J14_08              500             8               110             0               Open
 P0651              J13_09              J14_09              500             8               110             0               Open
 P0652              J13_10              J14_10              500             8               110             0               Open
 P0653              J13_11              J14_11              500             8               110             0               Open
 P0654              J13_12              J14_12              500             8               110             0               Open
 P0655              J13_13              J14_13              500             8               110             0               Open
 P0656              J13_14              J14_14              500             8               110             0               Open
 P0657              J13_15              J14_15              500             8               110             0               Open
 P0658              J13_16              J14_16              500             8               110             0               Open
 P0659              J13_17              J14_17              500             8               110             0               Open
 P0660              J13_18              J14_18              500             8               110             0               Open
 P0661              J13_19              J14_19              500             8               110             0               Open
 P0662              J14_00              J15_00              500             8               110             0               Open
 P0663              J14_01              J15_01              500             8               110             0               Open
 P0664              J14_02              J15_02              500             8               110             0               Open
 P0665              J14_03              J15_03              500             8               110             0               Open
 P0666              J14_04              J15_04              500             8               110             0               Open
 P0667              J14_05              J15_05              500             8               110             0               Open
 P0668              J14_06              J15_06              500             8               110             0               Open
 P0669              J14_07              J15_07              500             8               110             0               Open
 P0670              J14_08              J15_08              500             8               110             0               Open
 P0671              J14_09              J15_09              500             8               110             0               Open
 P0672              J14_10              J15_10              500             8               110             0               Open
 P0673              J14_11              J15_11              500             8               110             0               Open
 P0674              J14_12              J15_12              500             8               110             0               Open
 P0675              J14_13              J15_13              500             8               110             0               Open
 P0676              J14_14              J15_14              500             8               110             0               Open
 P0677              J14_15              J15_15              500             8               110             0               Open
 P0678              J14_16              J15_16              500             8               110             0               Open
 P0679              J14_17              J15_17              500             8               110             0               Open
 P0680              J14_18              J15_18              500             8               110             0               Open
 P0681              J14_19              J15_19              500             8               110             0               Open
 P0682              J15_00              J16_00              500             8               110             0               Open
 P0683              J15_01              J16_01              500             8               110             0               Open
 P0684              J15_02              J16_02              500             8               110             0               Open
 P0685              J15_03              J16_03              500             8               110             0               Open
 P0686              J15_04              J16_04              500             8               110             0               Open
 P0687              J15_05              J16_05              500             8               110             0               Open
 P0688              J15_06              J16_06              500             8               110             0               Open
 P0689              J15_07              J16_07              500             8               110             0               Open
 P0690              J15_08              J16_08              500             8               110             0               Open
 P0691              J15_09              J16_09              500             8               110             0               Open
 P0692              J15_10              J16_10              500             8               110             0               Open
 P0693              J15_11              J16_11              500             8               110             0               Open
 P0694              J15_12              J16_12              500             8               110             0               Open
 P0695              J15_13              J16_13              500             8               110             0               Open
 P0696              J15_14              J16_14              500             8               110             0               Open
 P0697              J15_15              J16_15              500             8               110             0               Open
 P0698              J15_16              J16_16              500             8               110             0               Open
 P0699              J15_17              J16_17              500             8               110             0               Open
 P0700              J15_18              J16_18              500             8               110             0               Open
 P0701              J15_19              J16_19              500             8               110             0               Open
 P0702              J16_00              J17_00              500             8               110             0               Open
 P0703              J16_01              J17_01              500             8               110             0               Open
 P0704              J16_02              J17_02              500             8               110             0               Open
 P0705              J16_03              J17_03              500             8               110             0               Open
 P0706              J16_04              J17_04              500             8               110             0               Open
 P0707              J16_05              J17_05              500             8               110             0               Open
 P0708              J16_06              J17_06              500             8               110             0               Open
 P0709              J16_07              J17_07              500             8               110             0               Open
 P0710              J16_08              J17_08              500             8               110             0               Open
 P0711              J16_09              J17_09              500             8               110             0               Open
 P0712              J16_10              J17_10              500             8               110             0               Open
 P0713              J16_11              J17_11              500             8               110             0               Open
 P0714              J16_12              J17_12              500             8               110             0               Open
 P0715              J16_13              J17_13              500             8               110             0               Open
 P0716              J16_14              J17_14              500             8               110             0               Open
 P0717              J16_15              J17_15              500             8               110             0               Open
 P0718              J16_16              J17_16              500             8               110             0               Open
 P0719              J16_17              J17_17              500             8               110             0               Open
 P0720              J16_18              J17_18              500             8               110             0               Open
 P0721              J16_19              J17_19              500             8               110             0               Open
 P0722              J17_00              J18_00              500             8               110             0               Open
 P0723              J17_01              J18_01              500             8               110             0               Open
 P0724              J17_02              J18_02              500             8               110             0               Open
 P0725              J17_03              J18_03              500             8               110             0               Open
 P0726              J17_04              J18_04              500             8               110             0               Open
 P0727              J17_05              J18_05              500             8               110             0               Open
 P0728              J17_06              J18_06              500             8               110             0               Open
 P0729              J17_07              J18_07              500             8               110             0               Open
 P0730              J17_08              J18_08              500             8               110             0               Open
 P0731              J17_09              J18_09              500             8               110             0               Open
 P0732              J17_10              J18_10              500             8               110             0               Open
 P0733              J17_11              J18_11              500             8               110             0               Open
 P0734              J17_12              J18_12              500             8               110             0               Open
 P0735              J17_13              J18_13              500             8               110             0               Open
 P0736              J17_14              J18_14              500             8               110             0               Open
 P0737              J17_15              J18_15              500             8               110             0               Open
 P0738              J17_16              J18_16              500             8               110             0               Open
 P0739              J17_17              J18_17              500             8               110             0               Open
 P0740              J17_18              J18_18              500             8               110             0               Open
 P0741              J17_19              J18_19              500             8               110             0               Open
 P0742              J18_00              J19_00              500             8               110             0               Open
 P0743              J18_01              J19_01              500             8               110             0               Open
 P0744              J18_02              J19_02              500             8               110             0               Open
 P0745              J18_03              J19_03              500             8               110             0               Open
 P0746              J18_04              J19_04              500             8               110             0               Open
 P0747              J18_05              J19_05              500             8               110             0               Open
 P0748              J18_06              J19_06              500             8               110             0               Open
 P0749              J18_07              J19_07              500             8               110             0               Open
 P0750              J18_08              J19_08              500             8               110             0               Open
 P0751              J18_09              J19_09              500             8               110             0               Open
 P0752              J18_10              J19_10              500             8               110             0               Open
 P0753              J18_11              J19_11              500             8               110             0               Open
 P0754              J18_12              J19_12              500             8               110             0               Open
 P0755              J18_13              J19_13              500             8               110             0               Open
 P0756              J18_14              J19_14              500             8               110             0               Open
 P0757              J18_15              J19_15              500             8               110             0               Open
 P0758              J18_16              J19_16              500             8               110             0               Open
 P0759              J18_17              J19_17              500             8               110             0               Open
 P0760              J18_18              J19_18              500             8               110             0               Open
 P0761              J18_19              J19_19              500             8               110             0               Open

[OPTIONS]
 UNITS               GPM
 HEADLOSS            H-W
 SPECIFIC GRAVITY    1.0
 VISCOSITY           1.0
 TRIALS              100
 ACCURACY            0.001
 CHECKFREQ           2
 MAXCHECK            10
 DAMPLIMIT           0
 UNBALANCED          STOP 10
 DEMAND MULTIPLIER   1.0
 EMITTER EXPONENT    0.5

[TIMES]
 DURATION            0:00
 HYDRAULIC TIMESTEP  1:00

[REPORT]
 STATUS              NO
 SUMMARY             NO

[END]
